c array.sh: path:     /data/qbf/qbf20/PCNF/fpu-10Xh-error01-uniform-depth-25.qdimacs
c array.sh: name:     fpu-10Xh-error01-uniform-depth-25
c array.sh: task:     57
c array.sh: host:     c3n29
c array.sh: uname:    Linux c3n29 4.15.0-135-generic #139-Ubuntu SMP Mon Jan 18 17:38:24 UTC 2021 x86_64 x86_64 x86_64 GNU/Linux
c array.sh: start:    Thu Feb 18 09:53:05 CET 2021
c array.sh: noturbo:  1
c array.sh: governor: 32 performance
c array.sh: tmp:      1%
c array.sh: unzipped: /tmp/local-unzipped-18838260-57-fpu-10Xh-error01-uniform-depth-25.cnf
*** qbfcert: using tmp directory:
*** qbfcert:   /tmp
trace-size: 56365460
solving-res 20
proof-size: 6071067
cert-size: 4783927
cert-header: aag 671008 666991 0 0 0
merged-header: p cnf 5432857 12272519
merged-size: 260470365
c ---- [ banner ] ------------------------------------------------------------
c
c KISSAT SAT Solver
c Copyright (c) 2019-2020 Armin Biere JKU Linz
c 
c Version 1.0.3 59813addcacc4d6fb880ebdd63685600475aa940
c gcc (Ubuntu 7.5.0-3ubuntu1~18.04) 7.5.0 -W -Wall -O3 -DNEMBEDDED -DNDEBUG -DNMETRICS -DNSTATISTICS
c Sun Feb 14 23:58:54 CET 2021 Linux cluster3 4.15.0-135-generic x86_64
c
c ---- [ parsing ] -----------------------------------------------------------
c
c opened and reading DIMACS file:
c 
c   /tmp/qbfcert_merged_cnf6933.cnf
c 
c parsed 'p cnf 5432857 12272519' header
c closing input after reading 260470365 bytes (248 MB)
c finished parsing after 4.32 seconds
c
c ---- [ solving ] -----------------------------------------------------------
c
c  seconds  reductions redundant irredundant
c          MB   restarts    trail         variables
c           level  conflicts   glue             remaining
c
c *  4.32 682 0  0  0   1   0 0% 0 12272517 793914 15%
c {  4.32 682 0  0  0   1   0 0% 0 12272517 793914 15%
c }  4.32 682 0  0  0   1   0 0% 0 12272517 793914 15%
c 0  4.32 682 0  0  0   1   0 0% 0 12272517 793914 15%
c
c ---- [ result ] ------------------------------------------------------------
c
s UNSATISFIABLE
c
c ---- [ profiling ] ---------------------------------------------------------
c
c           4.32   99.99 %  parse
c           0.00    0.00 %  search
c           0.00    0.00 %  focused
c           0.00    0.00 %  simplify
c =============================================
c           4.32  100.00 %  total
c
c ---- [ statistics ] --------------------------------------------------------
c
c conflicts:                                1                0.23 per second
c decisions:                                0                0.00 per conflict
c propagations:                       3967531           917465    per second
c
c ---- [ resources ] ---------------------------------------------------------
c
c maximum-resident-set-size:        715104256 bytes        682 MB
c process-time:                             4s               4.32 seconds
c
c ---- [ shutting down ] -----------------------------------------------------
c
c exit 20
*** qbfcert: VALID
c array.sh: end:      Thu Feb 18 09:53:19 CET 2021
